words_hard_train/2832.qaiger
aag 99 24 0 1 75
2
4
8
16
20
24
28
38
46
54
64
72
76
88
92
100
114
118
126
140
144
154
166
170
199
6 2 4
10 6 8
12 7 9
14 11 13
18 15 17
22 21 3
26 23 25
30 27 28
32 19 31
34 26 29
36 33 35
40 36 38
42 37 39
44 13 4
48 44 46
50 45 47
52 49 51
56 53 55
58 43 56
60 41 59
62 51 4
66 62 64
68 63 65
70 67 69
74 71 73
78 75 77
80 61 79
82 74 76
84 81 83
86 69 4
90 87 88
94 91 93
96 86 89
98 94 97
102 99 101
104 85 103
106 98 100
108 105 107
110 68 89
112 111 4
116 113 114
120 117 119
122 112 115
124 120 123
128 125 127
130 109 129
132 124 126
134 131 133
136 110 115
138 137 4
142 139 140
146 143 145
148 141 4
150 148 137
152 146 151
156 153 155
158 135 157
160 152 154
162 159 161
164 148 136
168 165 167
172 168 170
174 163 173
176 169 171
178 175 177
180 24 126
182 38 154
184 76 100
186 182 184
188 180 186
190 28 171
192 188 190
194 179 192
196 178 193
198 195 197
i0 2 y1[0]
i1 2 y1[7]
i2 2 y1[1]
i3 2 y2[1]
i4 2 y2[0]
i5 1 x2[0]
i6 1 x2[1]
i7 1 x2[2]
i8 2 y1[2]
i9 2 y2[2]
i10 2 y1[3]
i11 2 y2[3]
i12 1 x2[3]
i13 2 y1[4]
i14 2 y2[4]
i15 1 x2[4]
i16 2 y1[5]
i17 2 y2[5]
i18 1 x2[5]
i19 2 y1[6]
i20 2 y2[6]
i21 1 x2[6]
i22 2 y2[7]
i23 1 x2[7]
o0 bv[0]
c
simplified
  <=
    add
      1 x2
      1
    or
      2 y2
      abs
        2 y1
