words_hard_train/2832.qaiger.qdimacs
p cnf 99 226
a 38 12 77 14 50 19 85 63 0
e 1 2 3 4 5 6 7 8 9 10 11 13 15 16 17 18 20 21 22 23 24 25 26 27 28 29 30 31 32 33 34 35 36 37 39 40 41 42 43 44 45 46 47 48 49 51 52 53 54 55 56 57 58 59 60 61 62 64 65 66 67 68 69 70 71 72 73 74 75 76 78 79 80 81 82 83 84 86 87 88 89 90 91 92 93 94 95 96 97 98 99 0
-1 -2 3 0
1 -3 0
2 -3 0
-3 -4 5 0
3 -5 0
4 -5 0
3 4 6 0
-3 -6 0
-4 -6 0
5 6 7 0
-5 -7 0
-6 -7 0
7 8 9 0
-7 -9 0
-8 -9 0
10 1 11 0
-10 -11 0
-1 -11 0
11 12 13 0
-11 -13 0
-12 -13 0
13 -14 15 0
-13 -15 0
14 -15 0
9 15 16 0
-9 -16 0
-15 -16 0
-13 14 17 0
13 -17 0
-14 -17 0
16 17 18 0
-16 -18 0
-17 -18 0
-18 -19 20 0
18 -20 0
19 -20 0
18 19 21 0
-18 -21 0
-19 -21 0
6 -2 22 0
-6 -22 0
2 -22 0
-22 -23 24 0
22 -24 0
23 -24 0
22 23 25 0
-22 -25 0
-23 -25 0
24 25 26 0
-24 -26 0
-25 -26 0
26 27 28 0
-26 -28 0
-27 -28 0
21 -28 29 0
-21 -29 0
28 -29 0
20 29 30 0
-20 -30 0
-29 -30 0
25 -2 31 0
-25 -31 0
2 -31 0
-31 -32 33 0
31 -33 0
32 -33 0
31 32 34 0
-31 -34 0
-32 -34 0
33 34 35 0
-33 -35 0
-34 -35 0
35 36 37 0
-35 -37 0
-36 -37 0
37 38 39 0
-37 -39 0
-38 -39 0
30 39 40 0
-30 -40 0
-39 -40 0
-37 -38 41 0
37 -41 0
38 -41 0
40 41 42 0
-40 -42 0
-41 -42 0
34 -2 43 0
-34 -43 0
2 -43 0
43 -44 45 0
-43 -45 0
44 -45 0
45 46 47 0
-45 -47 0
-46 -47 0
-43 44 48 0
43 -48 0
-44 -48 0
-47 48 49 0
47 -49 0
-48 -49 0
49 50 51 0
-49 -51 0
-50 -51 0
42 51 52 0
-42 -52 0
-51 -52 0
-49 -50 53 0
49 -53 0
50 -53 0
52 53 54 0
-52 -54 0
-53 -54 0
-34 44 55 0
34 -55 0
-44 -55 0
55 -2 56 0
-55 -56 0
2 -56 0
56 -57 58 0
-56 -58 0
57 -58 0
58 59 60 0
-58 -60 0
-59 -60 0
-56 57 61 0
56 -61 0
-57 -61 0
-60 61 62 0
60 -62 0
-61 -62 0
62 63 64 0
-62 -64 0
-63 -64 0
54 64 65 0
-54 -65 0
-64 -65 0
-62 -63 66 0
62 -66 0
63 -66 0
65 66 67 0
-65 -67 0
-66 -67 0
-55 57 68 0
55 -68 0
-57 -68 0
68 -2 69 0
-68 -69 0
2 -69 0
69 -70 71 0
-69 -71 0
70 -71 0
71 72 73 0
-71 -73 0
-72 -73 0
70 -2 74 0
-70 -74 0
2 -74 0
-74 68 75 0
74 -75 0
-68 -75 0
-73 75 76 0
73 -76 0
-75 -76 0
76 77 78 0
-76 -78 0
-77 -78 0
67 78 79 0
-67 -79 0
-78 -79 0
-76 -77 80 0
76 -80 0
77 -80 0
79 80 81 0
-79 -81 0
-80 -81 0
-74 -68 82 0
74 -82 0
68 -82 0
82 83 84 0
-82 -84 0
-83 -84 0
-84 -85 86 0
84 -86 0
85 -86 0
81 86 87 0
-81 -87 0
-86 -87 0
84 85 88 0
-84 -88 0
-85 -88 0
87 88 89 0
-87 -89 0
-88 -89 0
-12 -63 90 0
12 -90 0
63 -90 0
-19 -77 91 0
19 -91 0
77 -91 0
-38 -50 92 0
38 -92 0
50 -92 0
-91 -92 93 0
91 -93 0
92 -93 0
-90 -93 94 0
90 -94 0
93 -94 0
-14 85 95 0
14 -95 0
-85 -95 0
-94 -95 96 0
94 -96 0
95 -96 0
89 -96 97 0
-89 -97 0
96 -97 0
-89 96 98 0
89 -98 0
-96 -98 0
97 98 99 0
-97 -99 0
-98 -99 0
-99 0
